&control
 title='crystal',
 prefix='crystal',
 pseudo_dir='.',
 calculation='relax',
 tstress=.true.,
/
&system
 ibrav=0,
 celldm(1)=1.0,
 nat=     2,
 ntyp=  2,
 ecutwfc=60.0,
 ecutrho=600.0,
/
&electrons
 conv_thr = 1d-8,
/
&ions
/
ATOMIC_SPECIES
o     15.999400 o.UPF
mg    24.305000 mg.UPF

ATOMIC_POSITIONS crystal
mg    0.00000000     0.00000000     0.00000000
o     0.50000000     0.50000000     0.50000000

K_POINTS automatic
4 4 4 1 1 1

CELL_PARAMETERS cubic
   3.962531347  -3.962531347  -0.000000000
  -3.962531347   0.000000000   3.962531347
   0.000000000  -3.962531347  -3.962531347
